MARKOV
110
2 2 2 2 2 2 2 2 2 2 2 2 2 2 2 2 2 2 2 2 2 2 2 2 2 2 2 2 2 2 2 2 2 2 2 2 2 2 2 2 2 2 2 2 2 2 2 2 2 2 2 2 2 2 2 2 2 2 2 2 2 2 2 2 2 2 2 2 2 2 2 2 2 2 2 2 2 2 2 2 2 2 2 2 2 2 2 2 2 2 2 2 2 2 2 2 2 2 2 2 2 2 2 2 2 2 2 2 2 2
191
4 2 4 0 1
4 2 5 0 1
4 3 4 0 1
4 3 5 0 1
4 6 8 2 3
4 6 9 2 3
4 7 8 2 3
4 7 9 2 3
4 8 10 4 5
4 8 11 4 5
4 9 10 4 5
4 9 11 4 5
4 12 14 6 7
4 12 15 6 7
4 13 14 6 7
4 13 15 6 7
4 14 16 8 9
4 14 17 8 9
4 15 16 8 9
4 15 17 8 9
4 16 18 10 11
4 16 19 10 11
4 17 18 10 11
4 17 19 10 11
4 20 22 12 13
4 20 23 12 13
4 21 22 12 13
4 21 23 12 13
4 22 24 14 15
4 22 25 14 15
4 23 24 14 15
4 23 25 14 15
4 24 26 16 17
4 24 27 16 17
4 25 26 16 17
4 25 27 16 17
4 26 28 18 19
4 26 29 18 19
4 27 28 18 19
4 27 29 18 19
4 30 32 20 21
4 30 33 20 21
4 31 32 20 21
4 31 33 20 21
4 32 34 22 23
4 32 35 22 23
4 33 34 22 23
4 33 35 22 23
4 34 36 24 25
4 34 37 24 25
4 35 36 24 25
4 35 37 24 25
4 36 38 26 27
4 36 39 26 27
4 37 38 26 27
4 37 39 26 27
4 38 40 28 29
4 38 41 28 29
4 39 40 28 29
4 39 41 28 29
4 42 44 30 31
4 42 45 30 31
4 43 44 30 31
4 43 45 30 31
4 44 46 32 33
4 44 47 32 33
4 45 46 32 33
4 45 47 32 33
4 46 48 34 35
4 46 49 34 35
4 47 48 34 35
4 47 49 34 35
4 48 50 36 37
0
0
0
0
0
0
0
0
0
0
0
0
0
0
0
0
0
0
0
0
0
0
0
0
0
0
0
0
0
0
0
0
0
0
0
0
0
0
0
0
0
0
0
0
0
0
0
0
0
0
0
0
0
0
0
0
0
0
0
0
0
0
0
0
0
0
0
0
0
0
0
0
0
0
0
0
0
0
0
0
0
0
0
0
0
0
0
0
0
0
0
0
0
0
0
0
0
0
0
0
0
0
0
0
0
0
0
0
0
0
0
0
0
0
0
0
0
0
16
1 1 1 1 1 1 1 1 1 1 1 1 0 1 1 1
16
1 1 1 1 1 1 1 1 1 1 1 1 0 1 1 1
16
1 1 1 1 1 1 1 1 1 1 1 1 0 1 1 1
16
1 1 1 1 1 1 1 1 1 1 1 1 0 1 1 1
16
1 1 1 1 1 1 1 1 1 1 1 1 0 1 1 1
16
1 1 1 1 1 1 1 1 1 1 1 1 0 1 1 1
16
1 1 1 1 1 1 1 1 1 1 1 1 0 1 1 1
16
1 1 1 1 1 1 1 1 1 1 1 1 0 1 1 1
16
1 1 1 1 1 1 1 1 1 1 1 1 0 1 1 1
16
1 1 1 1 1 1 1 1 1 1 1 1 0 1 1 1
16
1 1 1 1 1 1 1 1 1 1 1 1 0 1 1 1
16
1 1 1 1 1 1 1 1 1 1 1 1 0 1 1 1
16
1 1 1 1 1 1 1 1 1 1 1 1 0 1 1 1
16
1 1 1 1 1 1 1 1 1 1 1 1 0 1 1 1
16
1 1 1 1 1 1 1 1 1 1 1 1 0 1 1 1
16
1 1 1 1 1 1 1 1 1 1 1 1 0 1 1 1
16
1 1 1 1 1 1 1 1 1 1 1 1 0 1 1 1
16
1 1 1 1 1 1 1 1 1 1 1 1 0 1 1 1
16
1 1 1 1 1 1 1 1 1 1 1 1 0 1 1 1
16
1 1 1 1 1 1 1 1 1 1 1 1 0 1 1 1
16
1 1 1 1 1 1 1 1 1 1 1 1 0 1 1 1
16
1 1 1 1 1 1 1 1 1 1 1 1 0 1 1 1
16
1 1 1 1 1 1 1 1 1 1 1 1 0 1 1 1
16
1 1 1 1 1 1 1 1 1 1 1 1 0 1 1 1
16
1 1 1 1 1 1 1 1 1 1 1 1 0 1 1 1
16
1 1 1 1 1 1 1 1 1 1 1 1 0 1 1 1
16
1 1 1 1 1 1 1 1 1 1 1 1 0 1 1 1
16
1 1 1 1 1 1 1 1 1 1 1 1 0 1 1 1
16
1 1 1 1 1 1 1 1 1 1 1 1 0 1 1 1
16
1 1 1 1 1 1 1 1 1 1 1 1 0 1 1 1
16
1 1 1 1 1 1 1 1 1 1 1 1 0 1 1 1
16
1 1 1 1 1 1 1 1 1 1 1 1 0 1 1 1
16
1 1 1 1 1 1 1 1 1 1 1 1 0 1 1 1
16
1 1 1 1 1 1 1 1 1 1 1 1 0 1 1 1
16
1 1 1 1 1 1 1 1 1 1 1 1 0 1 1 1
16
1 1 1 1 1 1 1 1 1 1 1 1 0 1 1 1
16
1 1 1 1 1 1 1 1 1 1 1 1 0 1 1 1
16
1 1 1 1 1 1 1 1 1 1 1 1 0 1 1 1
16
1 1 1 1 1 1 1 1 1 1 1 1 0 1 1 1
16
1 1 1 1 1 1 1 1 1 1 1 1 0 1 1 1
16
1 1 1 1 1 1 1 1 1 1 1 1 0 1 1 1
16
1 1 1 1 1 1 1 1 1 1 1 1 0 1 1 1
16
1 1 1 1 1 1 1 1 1 1 1 1 0 1 1 1
16
1 1 1 1 1 1 1 1 1 1 1 1 0 1 1 1
16
1 1 1 1 1 1 1 1 1 1 1 1 0 1 1 1
16
1 1 1 1 1 1 1 1 1 1 1 1 0 1 1 1
16
1 1 1 1 1 1 1 1 1 1 1 1 0 1 1 1
16
1 1 1 1 1 1 1 1 1 1 1 1 0 1 1 1
16
1 1 1 1 1 1 1 1 1 1 1 1 0 1 1 1
16
1 1 1 1 1 1 1 1 1 1 1 1 0 1 1 1
16
1 1 1 1 1 1 1 1 1 1 1 1 0 1 1 1
16
1 1 1 1 1 1 1 1 1 1 1 1 0 1 1 1
16
1 1 1 1 1 1 1 1 1 1 1 1 0 1 1 1
16
1 1 1 1 1 1 1 1 1 1 1 1 0 1 1 1
16
1 1 1 1 1 1 1 1 1 1 1 1 0 1 1 1
16
1 1 1 1 1 1 1 1 1 1 1 1 0 1 1 1
16
1 1 1 1 1 1 1 1 1 1 1 1 0 1 1 1
16
1 1 1 1 1 1 1 1 1 1 1 1 0 1 1 1
16
1 1 1 1 1 1 1 1 1 1 1 1 0 1 1 1
16
1 1 1 1 1 1 1 1 1 1 1 1 0 1 1 1
16
1 1 1 1 1 1 1 1 1 1 1 1 0 1 1 1
16
1 1 1 1 1 1 1 1 1 1 1 1 0 1 1 1
16
1 1 1 1 1 1 1 1 1 1 1 1 0 1 1 1
16
1 1 1 1 1 1 1 1 1 1 1 1 0 1 1 1
16
1 1 1 1 1 1 1 1 1 1 1 1 0 1 1 1
16
1 1 1 1 1 1 1 1 1 1 1 1 0 1 1 1
16
1 1 1 1 1 1 1 1 1 1 1 1 0 1 1 1
16
1 1 1 1 1 1 1 1 1 1 1 1 0 1 1 1
16
1 1 1 1 1 1 1 1 1 1 1 1 0 1 1 1
16
1 1 1 1 1 1 1 1 1 1 1 1 0 1 1 1
16
1 1 1 1 1 1 1 1 1 1 1 1 0 1 1 1
16
1 1 1 1 1 1 1 1 1 1 1 1 0 1 1 1
16
1 1 1 1 1 1 1 1 1 1 1 1 0 1 1 1
1
0
1
0
1
0
1
0
1
0
1
0
1
0
1
0
1
0
1
0
1
0
1
0
1
0
1
0
1
0
1
0
1
0
1
0
1
0
1
0
1
0
1
0
1
0
1
0
1
0
1
0
1
0
1
0
1
0
1
0
1
0
1
0
1
0
1
0
1
0
1
0
1
0
1
0
1
0
1
0
1
0
1
0
1
0
1
0
1
0
1
0
1
0
1
0
1
0
1
0
1
0
1
0
1
0
1
0
1
0
1
0
1
0
1
0
1
0
1
0
1
0
1
0
1
0
1
0
1
0
1
0
1
0
1
0
1
0
1
0
1
0
1
0
1
0
1
0
1
0
1
0
1
0
1
0
1
0
1
0
1
0
1
0
1
0
1
0
1
0
1
0
1
0
1
0
1
0
1
0
1
0
1
0
1
0
1
0
1
0
1
0
1
0
1
0
1
0
1
0
1
0
1
0
1
0
1
0
1
0
1
0
1
0
1
0
1
0
1
0
1
0
1
0
1
0
1
0
1
0
1
0
1
0
1
0
